(set-option :produce-models true)
(set-logic QF_UF)
(declare-fun p7() Bool)
(declare-fun p42() Bool)
(declare-fun p37() Bool)
(declare-fun p99() Bool)
(declare-fun p103() Bool)
(declare-fun p116() Bool)
(declare-fun p16() Bool)
(declare-fun p61() Bool)
(declare-fun p62() Bool)
(declare-fun p98() Bool)
(declare-fun p71() Bool)
(declare-fun p29() Bool)
(declare-fun p10() Bool)
(declare-fun p50() Bool)
(declare-fun p56() Bool)
(declare-fun p92() Bool)
(declare-fun p93() Bool)
(declare-fun p102() Bool)
(declare-fun p45() Bool)
(declare-fun p32() Bool)
(declare-fun p15() Bool)
(declare-fun p118() Bool)
(declare-fun p0() Bool)
(declare-fun p67() Bool)
(declare-fun p72() Bool)
(declare-fun p19() Bool)
(declare-fun p106() Bool)
(declare-fun p95() Bool)
(declare-fun p44() Bool)
(declare-fun p59() Bool)
(declare-fun p113() Bool)
(declare-fun p9() Bool)
(declare-fun p85() Bool)
(declare-fun p47() Bool)
(declare-fun p70() Bool)
(declare-fun p51() Bool)
(declare-fun p48() Bool)
(declare-fun p17() Bool)
(declare-fun p55() Bool)
(declare-fun p31() Bool)
(declare-fun p24() Bool)
(declare-fun p110() Bool)
(declare-fun p35() Bool)
(declare-fun p28() Bool)
(declare-fun p73() Bool)
(declare-fun p33() Bool)
(declare-fun p114() Bool)
(declare-fun p112() Bool)
(declare-fun p40() Bool)
(declare-fun p38() Bool)
(declare-fun p91() Bool)
(declare-fun p66() Bool)
(declare-fun p104() Bool)
(declare-fun p60() Bool)
(declare-fun p18() Bool)
(declare-fun p69() Bool)
(declare-fun p3() Bool)
(declare-fun p115() Bool)
(declare-fun p23() Bool)
(declare-fun p63() Bool)
(declare-fun p5() Bool)
(declare-fun p8() Bool)
(declare-fun p53() Bool)
(declare-fun p27() Bool)
(declare-fun p39() Bool)
(declare-fun p81() Bool)
(declare-fun p21() Bool)
(declare-fun p20() Bool)
(declare-fun p100() Bool)
(declare-fun p43() Bool)
(declare-fun p89() Bool)
(declare-fun p34() Bool)
(declare-fun p101() Bool)
(declare-fun p80() Bool)
(declare-fun p12() Bool)
(declare-fun p6() Bool)
(declare-fun p76() Bool)
(declare-fun p79() Bool)
(declare-fun p41() Bool)
(declare-fun p78() Bool)
(declare-fun p54() Bool)
(declare-fun p64() Bool)
(declare-fun p58() Bool)
(declare-fun p84() Bool)
(declare-fun p90() Bool)
(declare-fun p74() Bool)
(declare-fun p83() Bool)
(declare-fun p2() Bool)
(declare-fun p96() Bool)
(declare-fun p86() Bool)
(declare-fun p75() Bool)
(declare-fun p52() Bool)
(declare-fun p119() Bool)
(declare-fun p107() Bool)
(declare-fun p57() Bool)
(declare-fun p26() Bool)
(declare-fun p22() Bool)
(declare-fun p109() Bool)
(declare-fun p111() Bool)
(declare-fun p46() Bool)
(declare-fun p25() Bool)
(declare-fun p36() Bool)
(declare-fun p1() Bool)
(declare-fun p87() Bool)
(declare-fun p30() Bool)
(declare-fun p94() Bool)
(declare-fun p11() Bool)
(declare-fun p117() Bool)
(declare-fun p77() Bool)
(declare-fun p13() Bool)
(declare-fun p68() Bool)
(declare-fun p97() Bool)
(declare-fun p65() Bool)
(declare-fun p4() Bool)
(declare-fun p49() Bool)
(declare-fun p88() Bool)
(declare-fun p82() Bool)
(declare-fun p108() Bool)
(declare-fun p14() Bool)
(declare-fun p105() Bool)
(assert
(and (or (not p7) (not p42) (not p37)) (or (not p99) p103 p116) (or (not p16) p61 (not p62)) (or (not p98) (not p71) (not p29)) (or (not p10) p42 p10) (or (not p99) (not p50) p56) (or (not p92) p93 p102) (or (not p45) p32 p15) (or p7 p118 p0) (or p67 (not p72) (not p19)) (or p106 p95 (not p44)) (or p59 (not p113) p16) (or (not p9) (not p85) p47) (or (not p70) p51 (not p48)) (or p67 (not p17) (not p55)) (or (not p95) (not p55) (not p31)) (or p37 (not p24) p110) (or (not p35) (not p28) (not p73)) (or p33 (not p70) p114) (or (not p110) (not p112) p40) (or (not p38) p91 p66) (or (not p102) (not p95) p92) (or (not p85) p95 p35) (or (not p98) (not p104) (not p60)) (or p114 p18 p69) (or p3 (not p110) (not p115)) (or p23 (not p63) (not p5)) (or (not p56) p8 (not p118)) (or p63 (not p53) (not p27)) (or (not p85) (not p39) p3) (or (not p114) (not p115) p3) (or (not p73) (not p63) (not p18)) (or (not p81) (not p31) (not p114)) (or (not p61) p32 p21) (or p114 p20 p99) (or p69 (not p17) (not p39)) (or p100 p104 (not p39)) (or p62 p43 p89) (or (not p67) (not p113) (not p21)) (or p34 (not p45) p101) (or p50 p69 p80) (or (not p61) p12 p17) (or (not p6) (not p76) (not p79)) (or p28 (not p115) p56) (or p113 p41 (not p66)) (or (not p78) p54 p66) (or (not p114) p64 p110) (or (not p118) p58 p84) (or p90 (not p74) (not p8)) (or p106 p5 (not p37)) (or p53 p28 p83) (or (not p5) (not p71) p2) (or p33 (not p50) p69) (or (not p5) (not p93) p59) (or p6 p32 (not p103)) (or p101 p2 (not p96)) (or p85 (not p8) (not p103)) (or (not p92) p89 (not p72)) (or (not p64) (not p106) p28) (or (not p61) (not p27) (not p86)) (or p44 (not p75) p33) (or p52 p55 p119) (or p45 p37 (not p81)) (or p5 p107 p100) (or (not p69) (not p114) p44) (or p103 p112 (not p76)) (or p116 p78 (not p57)) (or p31 (not p29) (not p73)) (or p26 p106 p98) (or p104 p53 p22) (or (not p48) (not p2) (not p73)) (or p18 p67 (not p101)) (or p41 p109 p111) (or p5 (not p76) (not p83)) (or p23 (not p104) (not p21)) (or (not p115) (not p46) (not p40)) (or (not p70) p75 (not p45)) (or p60 p17 p15) (or (not p92) (not p7) p45) (or p70 p5 p50) (or p40 p25 p36) (or p70 p9 (not p52)) (or (not p33) (not p45) (not p1)) (or (not p57) (not p87) (not p106)) (or p29 (not p18) p35) (or (not p41) (not p98) (not p30)) (or (not p76) (not p116) p94) (or p9 p116 (not p116)) (or p11 p21 (not p46)) (or (not p3) (not p54) p62) (or (not p116) (not p106) p107) (or p5 (not p30) (not p27)) (or (not p29) (not p117) p37) (or p40 (not p69) (not p20)) (or (not p24) (not p77) p45) (or p32 (not p69) (not p38)) (or (not p111) p87 p5) (or p5 p81 p107) (or (not p13) p79 (not p115)) (or p68 (not p8) (not p22)) (or p55 p44 p78) (or (not p45) (not p67) p28) (or p1 p44 (not p31)) (or (not p33) (not p56) (not p5)) (or (not p1) p98 (not p97)) (or (not p65) p37 p77) (or p25 (not p110) (not p73)) (or p4 p110 p49) (or p109 p41 p45) (or (not p93) p73 (not p11)) (or p3 p11 p1) (or (not p107) p21 (not p55)) (or p0 p31 (not p46)) (or p21 p77 (not p106)) (or (not p81) p43 p49) (or (not p54) p83 p44) (or p118 p72 p65) (or p23 (not p97) (not p94)) (or (not p114) (not p48) (not p69)) (or p33 p66 p22) (or (not p88) (not p22) p47) (or (not p91) p41 p35) (or (not p118) (not p74) (not p0)) (or (not p22) (not p51) (not p17)) (or p102 (not p72) p116) (or p109 p93 (not p6)) (or (not p70) (not p46) p19) (or (not p23) (not p98) p37) (or p74 p114 p19) (or p27 (not p23) p15) (or p54 (not p84) p92) (or p88 p5 p115) (or (not p31) p0 p57) (or (not p83) (not p67) (not p110)) (or p49 p84 p81) (or (not p2) p54 p32) (or p37 p0 p51) (or p52 p66 p82) (or p46 (not p107) (not p57)) (or p83 p48 p66) (or p91 (not p60) p54) (or p85 p112 p82) (or (not p116) p38 (not p21)) (or p66 p38 (not p86)) (or (not p41) (not p17) (not p26)) (or (not p26) p93 (not p11)) (or (not p15) p114 p39) (or (not p48) p56 p91) (or (not p104) (not p103) (not p107)) (or p67 p72 (not p57)) (or (not p6) (not p6) p55) (or (not p2) p119 (not p65)) (or p63 p29 (not p100)) (or p96 (not p39) (not p80)) (or p11 p23 (not p21)) (or p74 (not p56) p27) (or (not p75) p55 p25) (or p31 (not p3) p114) (or (not p77) p71 p40) (or (not p69) (not p86) (not p115)) (or p115 (not p62) (not p49)) (or p22 (not p15) (not p91)) (or (not p45) p1 (not p26)) (or (not p63) p48 (not p44)) (or (not p94) p77 p37) (or p100 p88 p33) (or (not p83) p100 (not p102)) (or p89 (not p17) p9) (or (not p90) (not p67) p80) (or (not p114) p103 p96) (or (not p61) p115 (not p95)) (or p60 p119 p44) (or (not p11) p26 p59) (or p80 (not p76) p81) (or p59 (not p6) (not p30)) (or (not p87) p116 (not p91)) (or (not p77) p51 (not p68)) (or (not p50) p76 (not p27)) (or p49 (not p55) p87) (or (not p91) p16 p44) (or p87 p35 p12) (or p41 (not p74) (not p82)) (or (not p90) (not p12) (not p96)) (or p71 p32 (not p32)) (or (not p101) (not p62) (not p107)) (or (not p78) (not p115) (not p60)) (or p86 p108 (not p15)) (or p39 p32 (not p109)) (or (not p16) (not p54) (not p89)) (or p2 p107 p51) (or (not p104) p49 p71) (or (not p111) (not p36) p117) (or (not p53) p25 p83) (or (not p1) (not p68) (not p77)) (or (not p86) (not p74) (not p63)) (or p53 p117 p28) (or (not p64) (not p20) p62) (or (not p21) p22 (not p71)) (or (not p93) p10 p88) (or (not p3) p23 p14) (or (not p68) (not p87) p76) (or p80 (not p10) p25) (or p47 (not p97) (not p0)) (or p11 (not p55) p14) (or p25 (not p118) (not p113)) (or p73 (not p47) (not p99)) (or p52 (not p101) (not p7)) (or (not p69) (not p18) p82) (or (not p65) p113 p49) (or (not p88) (not p55) p61) (or p35 p14 (not p29)) (or (not p99) (not p1) p27) (or (not p23) p89 p17) (or p37 (not p43) (not p37)) (or p100 (not p92) (not p69)) (or (not p5) p25 p89) (or (not p6) (not p31) p63) (or p82 (not p26) p58) (or (not p51) p87 p83) (or (not p48) (not p56) (not p68)) (or (not p2) p2 p88) (or p105 (not p57) p85) (or (not p66) (not p1) (not p69)) (or (not p64) p90 p96) (or (not p86) p45 p45) (or p73 (not p99) (not p111)) (or (not p67) (not p82) p9) (or (not p118) p65 (not p32)) (or (not p74) p59 (not p42)) (or (not p2) (not p113) (not p86)) (or p41 (not p81) p75) (or p4 p106 (not p34)) (or (not p47) p64 p43) (or (not p64) (not p116) (not p74)) (or p34 p106 (not p16)) (or p116 (not p69) p49) (or (not p73) p5 (not p52)) (or p85 (not p111) (not p44)) (or (not p99) (not p49) (not p4)) (or (not p41) p21 (not p22)) (or p32 (not p111) (not p108)) (or p88 p73 (not p94)) (or (not p0) p35 p77) (or p4 p63 (not p74)) (or (not p45) (not p12) p30) (or (not p106) (not p79) (not p102)) (or p22 p116 (not p2)) (or p80 (not p62) p39) (or p77 (not p83) (not p60)) (or p103 (not p112) p69) (or p23 (not p89) p75) (or (not p72) p26 (not p44)) (or p44 (not p55) (not p33)) (or p65 (not p33) (not p36)) (or p8 (not p92) (not p29)) (or (not p61) p90 (not p38)) (or (not p7) (not p95) p67) (or p88 (not p112) (not p46)) (or p67 p78 (not p74)) (or (not p14) p7 (not p11)) (or (not p102) p93 p82) (or (not p39) p69 (not p57)) (or (not p4) (not p4) p59) (or p95 p24 p64) (or (not p14) (not p10) (not p1)) (or p113 p92 p54) (or (not p90) p34 p11) (or p27 p76 p68) (or (not p79) (not p98) (not p103)) (or p8 (not p70) (not p9)) (or (not p84) p53 (not p58)) (or p6 (not p89) (not p21)) (or (not p0) p0 p65) (or (not p14) p15 (not p2)) (or (not p100) (not p33) p74) (or p90 p108 p48) (or p68 (not p97) (not p102)) (or p77 (not p66) p74) (or p53 p23 (not p65)) (or (not p11) (not p35) p30) (or (not p87) p117 p71) (or p105 p96 (not p58)) (or p69 (not p9) (not p4)) (or p21 p36 (not p104)) (or p10 p24 (not p105)) (or p110 p103 p13) (or p87 p108 p92) (or (not p2) (not p9) p84) (or p111 p60 (not p90)) (or (not p84) p54 p54) (or (not p71) p33 p87) (or p17 (not p27) (not p57)) (or (not p42) p31 p69) (or (not p87) (not p94) p117) (or p58 (not p106) (not p85)) (or p105 (not p43) p54) (or (not p109) p64 (not p98)) (or (not p4) p107 (not p83)) (or p18 (not p108) (not p37)) (or (not p53) (not p112) (not p41)) (or (not p32) p65 (not p23)) (or p110 (not p82) (not p29)) (or p99 (not p30) (not p28)) (or (not p40) (not p58) p10) (or p26 p26 (not p12)) (or p119 p116 (not p5)) (or (not p100) p93 p34) (or p97 (not p118) p119) (or (not p7) (not p3) (not p46)) (or p26 (not p104) (not p36)) (or p93 (not p65) (not p104)) (or (not p74) (not p3) (not p50)) (or p95 p67 p106) (or (not p13) (not p22) p45) (or p105 (not p89) p66) (or p82 (not p98) (not p37)) (or p56 p9 (not p68)) (or p20 (not p39) (not p43)) (or (not p113) (not p23) p61) (or (not p74) (not p34) p87) (or (not p64) (not p94) (not p84)) (or p97 (not p26) (not p75)) (or p61 p113 p108) (or p67 p81 (not p95)) (or (not p89) p12 p101) (or p96 p32 (not p116)) (or (not p63) (not p36) p85) (or p5 (not p111) (not p15)) (or p98 p96 (not p91)) (or (not p39) (not p56) (not p115)) (or p86 p37 p90) (or (not p84) (not p109) p68) (or p30 (not p47) p103) (or p83 p85 (not p12)) (or (not p19) (not p6) p7) (or (not p29) p28 p113) (or p69 (not p80) (not p25)) (or p86 p61 (not p67)) (or (not p35) (not p114) (not p47)) (or p101 (not p72) p51) (or p76 (not p86) p73) (or p36 p61 (not p24)) (or (not p74) p47 p115) (or (not p82) p35 (not p102)) (or (not p11) (not p31) (not p43)) (or p14 (not p7) p25) (or p72 p70 p24) (or (not p11) (not p30) p94) (or (not p42) (not p62) p37) (or (not p46) (not p85) (not p42)) (or (not p3) p40 p28) (or (not p25) (not p67) p65) (or (not p71) p90 p79) (or p65 (not p95) p112) (or p97 p119 p29) (or (not p24) p118 (not p89)) (or p7 p105 p39) (or p116 p7 p44) (or (not p79) p71 p29) (or (not p16) (not p50) (not p79)) (or (not p71) p76 (not p63)) (or p61 p37 p75) (or p34 (not p57) (not p102)) (or p61 (not p104) (not p18)) (or (not p71) p48 (not p108)) (or p10 p61 p26) (or (not p34) (not p107) p62) (or (not p6) p82 p38) (or p83 (not p53) (not p92)) (or p79 p102 p55) (or p14 (not p69) (not p111)) (or (not p91) p23 p17) (or p71 p7 (not p36)) (or p17 p53 p11) (or (not p112) (not p3) (not p61)) (or (not p15) (not p47) p112) (or p5 (not p63) p52) (or (not p112) p63 (not p60)) (or (not p62) p43 p76) (or p51 (not p78) (not p80)) (or p4 p100 p105) (or p89 (not p101) (not p39)) (or (not p89) (not p51) p30) (or p20 p102 p16) (or p119 p116 (not p22)) (or (not p2) p65 (not p26)) (or (not p37) p98 (not p62)) (or (not p52) p109 (not p58)) (or p56 p113 (not p79)) (or p103 (not p7) (not p65)) (or (not p46) p112 p75) (or p101 p54 (not p2)) (or p73 p97 p57) (or p74 p46 p79) (or (not p68) p51 (not p37)) (or (not p4) p116 (not p23)) (or p70 (not p102) (not p82)) (or (not p88) (not p109) p60) (or p50 (not p79) (not p85)) (or p34 (not p9) (not p117)) (or p25 p7 p42) (or (not p78) (not p1) p54) (or (not p88) (not p114) p100) (or p117 (not p61) (not p77)) (or p74 (not p9) (not p91)) (or p75 (not p36) (not p96)) (or p43 (not p91) p50) (or (not p76) p115 (not p59)) (or (not p41) p37 p51) (or p71 p81 (not p16)) (or (not p5) p45 (not p81)) (or p48 (not p37) p46) (or (not p107) p111 p4) (or (not p113) p107 (not p53)) (or p39 (not p84) (not p38)) (or (not p31) (not p104) (not p110)) (or (not p5) p63 (not p69)) (or p119 p101 (not p85)) (or (not p40) p20 p11) (or (not p92) (not p90) p71) (or p89 p0 (not p8)) (or p23 p68 p69) (or (not p64) (not p17) (not p59)) (or (not p1) p96 p108) (or (not p51) p91 (not p7)) (or (not p106) (not p80) (not p18)) (or p61 p0 (not p66)) (or p14 (not p93) (not p6)) (or (not p71) p112 (not p13)) (or (not p105) (not p64) p101) (or (not p57) p80 (not p17)) (or p51 p93 (not p82)) (or (not p90) p104 (not p53)) (or p40 p109 p44) (or p46 (not p117) p91) (or (not p88) (not p112) (not p90)) (or p26 p57 p34) (or p63 (not p102) p91) (or (not p55) (not p1) p31) (or (not p45) (not p82) p67) (or (not p68) p102 (not p19)) (or (not p16) (not p42) p74) (or (not p4) (not p80) (not p82)) (or p69 p48 p77) (or (not p1) p98 (not p17)) (or (not p98) (not p19) (not p40)) (or p81 (not p16) p8) (or p61 p69 (not p113)) (or (not p21) p73 (not p24)) (or p68 (not p31) (not p77)) (or (not p67) (not p66) (not p15)) (or p58 p82 p116) (or (not p116) (not p59) (not p7)) (or (not p54) p82 p14) (or (not p40) (not p16) (not p24)) (or (not p63) (not p108) p33) (or p74 (not p102) (not p101)) (or (not p74) (not p30) (not p98)) (or (not p19) p20 p43) (or (not p61) p48 p67) (or (not p110) (not p15) p80) (or (not p113) (not p12) (not p81)) (or (not p65) p65 (not p13)) (or p61 p26 (not p10)) (or p115 p45 p51) (or p104 p92 (not p117)) (or (not p74) (not p17) (not p88)) (or (not p64) (not p51) (not p52)) (or p20 p10 (not p92)) (or (not p97) p95 p49) (or (not p63) p75 (not p39)) (or (not p63) (not p81) (not p100)) (or p90 (not p118) p89) (or p22 p61 (not p46)) (or p68 (not p80) p61) (or p110 p113 (not p96)) (or (not p4) (not p57) (not p21)) (or p24 (not p114) (not p116)) (or (not p90) (not p65) (not p25)) (or (not p90) p80 p20) (or p2 p61 (not p68)) (or p30 p106 p22) (or (not p100) (not p47) (not p48)) (or (not p51) (not p16) (not p115)) (or p111 p101 (not p71)) (or (not p66) p45 (not p71)) (or (not p84) p40 (not p62)) (or (not p4) (not p70) p37) (or (not p50) (not p54) p109) (or p93 (not p117) p17) (or p57 p34 (not p82)) (or (not p23) p112 p75) (or p48 (not p25) (not p40)) (or p67 p12 p45) (or p71 (not p6) (not p30)) (or (not p69) p83 p71) (or p88 p98 (not p39)) (or (not p26) p98 p12) (or p107 p11 (not p111)) (or (not p106) (not p19) (not p24)) (or (not p43) p88 p54) (or p4 (not p99) p76) (or p49 p84 p55) (or p54 (not p108) (not p26)) (or p79 (not p49) (not p103)) (or (not p93) (not p23) (not p15)) (or (not p59) p104 (not p28)) (or p31 (not p102) p116) (or p55 (not p57) (not p28)) (or (not p110) (not p42) (not p62)) (or (not p104) p69 (not p76)) (or (not p100) p31 p10) (or (not p34) p46 (not p3)) (or (not p16) (not p35) (not p67)) (or p79 p48 p96) (or p43 p64 p19) (or (not p93) (not p59) (not p117)) (or (not p100) p17 p52) (or p6 (not p85) (not p26)) (or (not p12) (not p49) p68) (or (not p46) (not p55) p108) (or p72 (not p41) p36) (or p84 (not p71) (not p108)) (or p70 p25 (not p82)) (or p63 (not p89) (not p48)) (or (not p76) p44 (not p68)) (or p95 p4 p55) (or p110 p117 p38) (or p92 p91 (not p69)) (or p27 (not p12) p54) (or (not p10) p62 (not p100)) (or p88 (not p3) p98) (or p43 p48 p43) (or p78 p86 p2) (or (not p7) p105 p106) (or p5 p7 (not p1)) (or (not p62) (not p91) p3) (or (not p9) (not p107) (not p90)) (or (not p37) (not p4) (not p76)) (or p108 (not p91) (not p29)) (or p6 (not p13) (not p17)) (or p81 p32 (not p97)) (or p30 p15 p78) (or p108 (not p76) (not p73)) (or p6 p90 (not p19)) (or p94 (not p117) (not p65)) (or p7 p1 (not p13)) (or (not p103) p119 p102) (or (not p58) p48 (not p117)) (or p51 p114 p2) (or p60 p36 p31) (or (not p2) p58 (not p18)) (or p11 (not p117) (not p15)) (or p37 (not p101) p6) (or p23 p30 p6) (or p40 (not p87) p35) (or p25 (not p84) (not p117)) (or (not p88) (not p63) (not p58)) (or p61 (not p69) (not p92)) (or p37 (not p4) (not p67)) (or p21 p52 p50) (or (not p110) p86 (not p87)) (or p101 (not p31) (not p67)) (or (not p47) p15 (not p85)) (or (not p112) (not p69) (not p9)) (or p41 (not p93) (not p39)) (or (not p14) (not p20) (not p12)) (or (not p113) (not p46) p61) (or (not p92) (not p8) p111) (or (not p15) p6 p27) (or p36 p90 p114) (or (not p33) (not p2) p29) (or (not p61) (not p41) (not p105)) (or p85 (not p49) p17) (or p23 (not p67) p66) (or (not p104) (not p28) p68) (or p13 (not p91) p47) (or p29 p69 (not p28)) (or (not p104) (not p86) p89) (or p113 p7 (not p40)) (or p2 (not p48) (not p27)) (or p106 (not p53) p116) (or (not p64) (not p103) p2) (or (not p26) p109 (not p27)) (or (not p101) p12 (not p41)) (or p90 p78 (not p13)) (or p102 p37 p42) (or p31 p7 p19) (or p33 p53 p3) (or (not p35) p43 p83) (or p45 (not p7) (not p42)) (or (not p78) (not p52) (not p34)) (or (not p28) (not p65) p48) (or (not p7) p19 p91) (or p24 (not p26) p80) (or (not p52) p3 (not p86)) (or (not p14) (not p76) (not p57)) (or p66 (not p50) (not p29)) (or p3 (not p115) (not p74)))
)
(check-sat)
(get-model)
